(set-logic ALL)
(set-option :produce-models true)
(declare-sort BoundSet 0)
(declare-sort UnboundSet 0)
(declare-fun c1 () BoundSet)
(declare-fun c2 () BoundSet)
(declare-fun IsRunTogether (BoundSet) Bool)
(declare-fun IsOnGreenGrass (BoundSet) Bool)
(declare-fun IsMoreThanOne (BoundSet) Bool)
(declare-fun IsDog (BoundSet) Bool)
(assert (not (=> (and (exists ((b BoundSet)) (exists ((a BoundSet)) (and (IsRunTogether a) (IsOnGreenGrass b)))) (forall ((d BoundSet)) (forall ((e BoundSet)) (=> (IsRunTogether d) (IsMoreThanOne e))))) (exists ((c BoundSet)) (and (IsMoreThanOne c) (or (IsDog c) (and (IsDog c1) (IsDog c2))))))))
(check-sat)
(get-model)